z1,z2,z3,nondominated
2,5,8,0
7,2,5,0
9,2,5,0
2,8,5,0
2,9,5,0
3,7,3,0
2,7,5,0
6,1,9,0
2,6,5,0
2,9,5,0
8,4,2,0
4,4,3,0
8,3,3,0
3,3,6,0
4,7,2,0
9,6,2,0
4,4,4,0
8,3,3,0
5,6,2,0
5,2,9,0
2,5,9,0
4,9,3,0
4,6,2,0
5,6,2,0
4,3,9,0
2,4,9,0
7,1,7,0
2,4,9,0
3,4,4,0
7,1,8,0
1,6,8,0
4,2,7,0
5,2,5,0
6,7,1,0
2,5,8,0
5,7,2,0
1,1,1,0
1,1,1,0
1,1,1,0
1,1,1,0
1,1,1,0
1,1,1,0
